outputs/case_368.model.txt
write_off_approved_by_authorized_personnel = False
credit_card_annual_interest_rate = 10
overdue_months = 0
bad_debt_provision_rate = 0
foreign_card_company_authorized = True
write_off_months_after_overdue = 0
bad_debt_write_off_timing_correct = True
internal_control_system_established = True
bad_debt_write_off_approved = True
central_authority_permit = True
reporting_disclosed = True
penalty = False
reporting_data_correct = True
bad_debt_provision_rate_correct = True
internal_control_established = True
credit_card_interest_rate_ok = True
credit_card_business_permitted = True
bad_debt_provision_level = 1
credit_card_reporting_compliance = True
reporting_submitted = True